
  32    1
  10

   0   0   8 2 3 4 7 8 13 15 16 
   1   1   6 19 18 14 11 9 5 
   6   5   3 20 18 6 
   4   2   4 22 14 11 9 
   6   1   3 21 12 10 
   9   2   4 27 21 19 12 
   9   2   2 21 12 
   2   1   2 27 12 
   6   3   6 31 30 27 26 25 20 
   6   1   6 31 30 27 25 22 20 
   6   3   5 31 26 25 21 20 
   9   3   3 31 22 17 
   2   2   3 22 21 17 
  10   1   6 31 29 26 25 23 21 
   9   2   5 31 27 25 22 21 
  10   2   4 30 27 26 19 
   7   3   5 30 29 26 25 23 
   7   3   5 31 30 29 25 23 
   8   1   3 31 29 23 
   2   1   2 29 23 
   4   3   2 30 24 
   7   3   2 29 28 
   8   1   1 24 
   7   1   1 28 
   7   2   1 28 
   3   1   1 28 
   8   3   1 28 
   2   2   1 32
   5   3   1 32
   3   1   1 32
   4   1   1 32
   0   0   0 
